1 2 3 4 5 6 7 8 9 10
1 0 67 51 38 21 42 57 31 60 34
2 67 0 42 73 70 54 54 95 74 37
3 51 42 0 35 41 67 12 67 32 44
4 38 73 35 0 17 74 31 37 23 56
5 21 70 41 17 0 60 42 27 40 45
6 42 54 67 74 60 0 78 72 90 24
7 57 54 12 31 42 78 0 67 21 55
8 31 95 67 37 27 72 67 0 60 65
9 60 74 32 23 40 90 21 60 0 68
10 34 37 44 56 45 24 55 65 68 0
